# Solution for model iteration_420_copy
# Objective value = 1.2341752999958533e+02
0 0
1 0.001
3 0.001
5 0.001
6 1.001
7 0.001
8 1.001
9 1.0019999999999998e+00
11 1.0019999999999998e+00
13 2.3521703716204680e+01
15 2.2381261228005997e+01
16 2.3381261228005997e+01
17 2.4867821203164350e+01
19 2.3765513906518319e+01
20 2.4765513906518319e+01
21 2.4766513906518320e+01
23 3.4525655002511336e+01
24 3.5525655002511336e+01
25 3.5205017739235970e+01
26 3.6205017739235970e+01
27 3.3657688206071434e+01
28 3.4657688206071434e+01
29 3.6206017739235968e+01
31 4.7042411398337912e+01
33 4.9094284592867886e+01
34 5.0094284592867886e+01
35 5.2429649607075234e+01
37 5.4741652045940441e+01
38 5.5741652045940441e+01
39 5.5742652045940439e+01
41 7.0685238307724319e+01
42 7.1685238307724319e+01
43 7.0730672703400941e+01
44 7.1730672703400941e+01
45 7.0581819181180734e+01
46 7.1581819181180734e+01
47 7.6656112996778759e+01
48 7.7656112996778759e+01
49 7.1731672703400946e+01
51 79.9914780105852
53 7.9948264637867922e+01
55 9.3953177542701511e+01
56 9.4953177542701511e+01
57 9.4455694520808208e+01
58 9.5455694520808208e+01
59 9.4376164611761183e+01
60 9.5376164611761183e+01
61 9.5456694520808213e+01
63 8.4683407765879750e+01
65 1.0346897232000117e+02
67 1.0905932749137166e+02
69 1.3052010590372174e+02
70 1.3152010590372174e+02
71 1.2970657541563784e+02
72 1.3070657541563784e+02
73 1.3225559663541540e+02
75 1.3152110590372175e+02
77 123.783522353123
79 1.5545186577945913e+02
81 1.4484734128318064e+02
82 1.4584734128318064e+02
83 1.4505564461264473e+02
84 1.4605564461264473e+02
85 1.4633242283613316e+02
87 1.7230389211627593e+02
88 1.7330389211627593e+02
89 1.7075250201192921e+02
90 1.7175250201192921e+02
91 1.7330489211627594e+02
93 1.6785566426606121e+02
94 1.6885566426606121e+02
95 1.6739624175102773e+02
96 1.6839624175102773e+02
97 1.8451971526024556e+02
99 1.6885666426606122e+02
101 2.0242144088970684e+02
103 1.7104361789290840e+02
104 1.7204361789290840e+02
105 1.6721369049397185e+02
106 1.6821369049397185e+02
107 1.7204461789290841e+02
109 1.9990671230334314e+02
110 2.0090671230334314e+02
111 2.2594214857184008e+02
113 2.0150215449024654e+02
114 2.0250215449024654e+02
115 2.2100377697861737e+02
117 2.0250315449024654e+02
119 2.4946285625397331e+02
121 2.2494384590770403e+02
122 2.2594384590770403e+02
123 2.2749578878031494e+02
124 2.2849578878031494e+02
125 2.2547140955913736e+02
126 2.2647140955913736e+02
127 2.4419150334264191e+02
129 2.2729201272416364e+02
130 2.2829201272416364e+02
131 2.2704605466678743e+02
132 2.2804605466678743e+02
133 2.2722715850060246e+02
134 2.2822715850060246e+02
135 2.2851932915482263e+02
137 2.7763350485936110e+02
139 2.8491738905086675e+02
141 2.6906213805148258e+02
142 2.7006213805148258e+02
143 2.7122629472055917e+02
144 2.7222629472055917e+02
145 2.7222729472055914e+02
147 3.0843809673299995e+02
149 3.0670135434014759e+02
151 2.5018646792641042e+02
152 2.5118646792641042e+02
153 2.5118746792641042e+02
155 335.769203820934
157 3.4133724042267818e+02
159 2.9073130326432653e+02
161 334.242358629493
162 335.242358629493
163 3.3668700479095685e+02
164 3.3768700479095685e+02
165 3.3889872959553912e+02
166 3.3989872959553912e+02
167 3.7890801243916684e+02
168 3.7990801243916684e+02
169 3.8251467504680312e+02
170 3.8351467504680312e+02
171 3.4962452379203773e+02
173 3.7990901243916682e+02
175 3.8351567504680310e+02
177 3.7452874276217682e+02
178 3.7552874276217682e+02
179 3.7602552379203775e+02
181 3.3989972959553910e+02
182 3.4089972959553910e+02
183 3.3768800479095682e+02
184 3.3868800479095682e+02
185 3.3989972959553910e+02
186 3.4089972959553910e+02
187 4.1642152999958535e+02
188 4.1742152999958535e+02
189 3.4090072959553908e+02
191 4.1642152999958535e+02
192 4.1742152999958535e+02
193 415.869969812014
194 416.869969812014
195 3.9803416926661379e+02
196 3.9903416926661379e+02
197 3.9903516926661376e+02
199 4.1625974892409329e+02
200 4.1725974892409329e+02
201 4.1642152999958535e+02
202 4.1742152999958535e+02
203 4.1742252999958532e+02
c(0,203)_ru 1.2341752999958533e+02
lambda[0] 0
lambda[1] 0
lambda[2] 0
lambda[3] 0
lambda[4] 0
lambda[5] 0
lambda[6] 0
lambda[7] 0
lambda[8] 0
lambda[9] 0
lambda[10] 0
lambda[11] 0
lambda[12] 0
lambda[13] 0
lambda[14] 0
lambda[15] 0
lambda[16] 0
lambda[17] 0
lambda[18] 0
lambda[19] 0
lambda[20] 0
lambda[21] 0
lambda[22] 0
lambda[23] 0
lambda[24] 0
lambda[25] 0
lambda[26] 0
lambda[27] 0
lambda[28] 0
lambda[29] 0
lambda[30] 0
lambda[31] 0
lambda[32] 0
lambda[33] 0
lambda[34] 0
lambda[35] 0
lambda[36] 0
lambda[37] 0
lambda[38] 0
lambda[39] 0
lambda[40] 0
lambda[41] 0
lambda[42] 0
lambda[43] 0
lambda[44] 0
lambda[45] 0
lambda[46] 0
lambda[47] 0
lambda[48] 0
lambda[49] 0
lambda[50] 0
lambda[51] 0
lambda[52] 0
lambda[53] 0
lambda[54] 0
lambda[55] 0
lambda[56] 0
lambda[57] 0
lambda[58] 0
lambda[59] 0
lambda[60] 0
lambda[61] 0
lambda[62] 0
lambda[63] 0
lambda[64] 0
lambda[65] 0
lambda[66] 0
lambda[67] 0
lambda[68] 0
lambda[69] 0
lambda[70] 0
lambda[71] 0
lambda[72] 0
lambda[73] 0
lambda[74] 0
lambda[75] 0
lambda[76] 0
lambda[77] 0
lambda[78] 0
lambda[79] 0
lambda[80] 0
lambda[81] 0
lambda[82] 0
lambda[83] 0
lambda[84] 0
lambda[85] 0
lambda[86] 0
lambda[87] 0
lambda[88] 0
lambda[89] 0
lambda[90] 0
lambda[91] 0
lambda[92] 0
lambda[93] 0
lambda[94] 0
lambda[95] 0
lambda[96] 0
lambda[97] 0
lambda[98] 0
lambda[99] 0
lambda[100] 0
lambda[101] 0
lambda[102] 0
lambda[103] 0
lambda[104] 0
lambda[105] 0
lambda[106] 0
lambda[107] 0
lambda[108] 0
lambda[109] 0
lambda[110] 0
lambda[111] 0
lambda[112] 0
lambda[113] 0
lambda[114] 0
lambda[115] 0
lambda[116] 0
lambda[117] 0
lambda[118] 0
lambda[119] 0
lambda[120] 0
lambda[121] 0
lambda[122] 0
lambda[123] 0
lambda[124] 0
lambda[125] 0
lambda[126] 0
lambda[127] 0
lambda[128] 0
lambda[129] 0
lambda[130] 0
lambda[131] 0
lambda[132] 0
lambda[133] 0
lambda[134] 0
lambda[135] 0
lambda[136] 0
lambda[137] 0
lambda[138] 0
lambda[139] 0
lambda[140] 0
lambda[141] 0
lambda[142] 0
lambda[143] 0
lambda[144] 0
lambda[145] 0
lambda[146] 0
lambda[147] 0
lambda[148] 0
lambda[149] 0
lambda[150] 0
lambda[151] 0
lambda[152] 0
lambda[153] 0
lambda[154] 0
lambda[155] 0
lambda[156] 0
lambda[157] 0
lambda[158] 0
lambda[159] 0
lambda[160] 0
lambda[161] 0
lambda[162] 0
lambda[163] 0
lambda[164] 0
lambda[165] 0
lambda[166] 0
lambda[167] 0
lambda[168] 0
lambda[169] 0
lambda[170] 0
lambda[171] 0
lambda[172] 0
lambda[173] 0
lambda[174] 0
lambda[175] 0
lambda[176] 0
lambda[177] 0
lambda[178] 0
lambda[179] 0
lambda[180] 0
lambda[181] 0
lambda[182] 0
lambda[183] 0
lambda[184] 0
lambda[185] 0
lambda[186] 0
lambda[187] 0
lambda[188] 0
lambda[189] 0
lambda[190] 0
lambda[191] 0
lambda[192] 0
lambda[193] 0
lambda[194] 0
lambda[195] 0
lambda[196] 0
lambda[197] 0
lambda[198] 0
lambda[199] 0
lambda[200] 0
lambda[201] 0
lambda[202] 0
lambda[203] 0
lambda[204] 0
lambda[205] 0
lambda[206] 0
lambda[207] 0
lambda[208] 0
lambda[209] 0
lambda[210] 0
lambda[211] 0
lambda[212] 0
lambda[213] 0
lambda[214] 0
lambda[215] 0
lambda[216] 0
lambda[217] 0
lambda[218] 0
lambda[219] 0
lambda[220] 0
lambda[221] 0
lambda[222] 0
lambda[223] 0
lambda[224] 0
lambda[225] 0
lambda[226] 0
lambda[227] 0
lambda[228] 0
lambda[229] 0
lambda[230] 0
lambda[231] 0
lambda[232] 0
lambda[233] 0
lambda[234] 0
lambda[235] 0
lambda[236] 0
lambda[237] 0
lambda[238] 0
lambda[239] 0
lambda[240] 0
lambda[241] 0
lambda[242] 0
lambda[243] 0
lambda[244] 0
lambda[245] 0
lambda[246] 0
lambda[247] 0
lambda[248] 0
lambda[249] 0
lambda[250] 0
lambda[251] 0
lambda[252] 0
lambda[253] 0
lambda[254] 0
lambda[255] 0
lambda[256] 0
lambda[257] 0
lambda[258] 0
lambda[259] 0
lambda[260] 0
lambda[261] 0
lambda[262] 0
lambda[263] 0
lambda[264] 0
lambda[265] 0
lambda[266] 0
lambda[267] 0
lambda[268] 0
lambda[269] 0
lambda[270] 0
lambda[271] 0
lambda[272] 0
lambda[273] 0
lambda[274] 0
lambda[275] 0
lambda[276] 0
lambda[277] 0
lambda[278] 0
lambda[279] 0
lambda[280] 0
lambda[281] 0
lambda[282] 0
lambda[283] 0
lambda[284] 0
lambda[285] 0
lambda[286] 0
lambda[287] 0
lambda[288] 0
lambda[289] 0
lambda[290] 0
lambda[291] 0
lambda[292] 0
lambda[293] 0
lambda[294] 0
lambda[295] 0
lambda[296] 0
lambda[297] 0
lambda[298] 0
lambda[299] 0
lambda[300] 0
lambda[301] 0
lambda[302] 0
lambda[303] 0
lambda[304] 0
lambda[305] 0
lambda[306] 0
lambda[307] 0
lambda[308] 0
lambda[309] 0
lambda[310] 0
lambda[311] 0
lambda[312] 0
lambda[313] 0
lambda[314] 0
lambda[315] 0
lambda[316] 0
lambda[317] 0
lambda[318] 0
lambda[319] 0
lambda[320] 0
lambda[321] 0
lambda[322] 0
lambda[323] 0
lambda[324] 0
lambda[325] 0
lambda[326] 0
lambda[327] 0
lambda[328] 0
lambda[329] 0
lambda[330] 0
lambda[331] 0
lambda[332] 0
lambda[333] 0
lambda[334] 0
lambda[335] 0
lambda[336] 0
lambda[337] 0
lambda[338] 0
lambda[339] 0
lambda[340] 0
lambda[341] 0
lambda[342] 0
lambda[343] 0
lambda[344] 0
lambda[345] 0
lambda[346] 0
lambda[347] 0
lambda[348] 0
lambda[349] 0
lambda[350] 0
lambda[351] 0
lambda[352] 0
lambda[353] 0
lambda[354] 0
lambda[355] 0
lambda[356] 0
lambda[357] 0
lambda[358] 0
lambda[359] 0
lambda[360] 0
lambda[361] 0
lambda[362] 0
lambda[363] 0
lambda[364] 0
lambda[365] 0
lambda[366] 0
lambda[367] 0
lambda[368] 0
lambda[369] 0
lambda[370] 0
lambda[371] 0
lambda[372] 0
lambda[373] 0
lambda[374] 0
lambda[375] 0
lambda[376] 0
lambda[377] 0
lambda[378] 0
lambda[379] 0
lambda[380] 0
lambda[381] 0
lambda[382] 0
lambda[383] 0
lambda[384] 0
lambda[385] 0
lambda[386] 0
lambda[387] 0
lambda[388] 0
lambda[389] 0
lambda[390] 0
lambda[391] 0
lambda[392] 0
lambda[393] 0
lambda[394] 0
lambda[395] 0
lambda[396] 0
lambda[397] 0
lambda[398] 0
lambda[399] 0
lambda[400] 0
lambda[401] 0
lambda[402] 0
lambda[403] 0
lambda[404] 0
lambda[405] 0
lambda[406] 0
lambda[407] 0
lambda[408] 0
lambda[409] 0
lambda[410] 8.0819939067252378e-02
lambda[411] 1.4854856107374828e-01
lambda[412] 0
lambda[413] 0
lambda[414] 1.6540536993836946e-01
lambda[415] 0
lambda[416] 0
lambda[417] 0
lambda[418] 0.0974018248762385
lambda[419] 5.0782430504439191e-01
phi[0] 5.1082562376599117e-01
